============================[ Problem Statistics ]=============================|                                                                             ||  Number of variables:          4242                                         ||  Number of clauses:            9920                                         ||  Parse time:                   0.32 s                                       ||                                                                             |============================[ Search Statistics ]==============================| Conflicts |          ORIGINAL         |          LEARNT          | Progress ||           |    Vars  Clauses Literals |    Limit  Clauses Lit/Cl |          |===============================================================================|       100 |    1591     6125   492276 |     2245      100     53 | 62.501 % |===============================================================================restarts              : 2conflicts             : 184            (382 /sec)decisions             : 356            (0.00 % random) (739 /sec)propagations          : 10034          (20817 /sec)conflict literals     : 12677          (95.22 % deleted)CPU time              : 0.482 sSATISFIABLE